\ LP format - for model browsing. Use MPS format to capture full model detail.
\ Signature: 0x3c11d8bdc2269e05
Minimize
 
Subject To
 R0: C0 + C1 + C2 + C3 + C4 + C5 + C6 + C7 + C8 + C9 + C10 + C11 + C12
   + C13 + C14 + C15 + C16 + C17 + C18 + C19 + C20 + C21 + C22 + C23 + C24
   + C25 + C26 + C27 + C28 + C29 + C30 + C31 + C32 + C33 + C34 + C35 + C36
   + C37 + C38 + C39 + C40 + C41 + C42 + C43 + C44 + C45 + C46 + C47 + C48
   + C49 + C50 + C51 + C52 + C53 + C54 + C55 + C56 + C57 + C58 + C59 + C60
   + C61 + C62 + C63 + C64 + C65 + C66 + C67 + C68 + C69 + C70 + C71 + C72
   + C73 + C74 + C75 + C76 + C77 + C78 + C79 + C80 + C81 + C82 + C83 + C84
   + C85 + C86 + C87 + C88 + C89 + C90 + C91 + C92 + C93 + C94 + C95 + C96
   + C97 + C98 + C99 <= 10
 R1: C0 + C1 + C2 + C3 + C4 <= 10
 R2: C5 + C6 + C7 + C8 + C9 <= 10
 R3: C10 + C11 + C12 + C13 + C14 <= 10
 R4: C15 + C16 + C17 + C18 + C19 <= 10
 R5: C20 + C21 + C22 + C23 + C24 <= 10
 R6: C25 + C26 + C27 + C28 + C29 <= 10
 R7: C30 + C31 + C32 + C33 + C34 <= 10
 R8: C35 + C36 + C37 + C38 + C39 <= 10
 R9: C40 + C41 + C42 + C43 + C44 <= 10
 R10: C45 + C46 + C47 + C48 + C49 <= 10
 R11: C50 + C51 + C52 + C53 + C54 <= 10
 R12: C55 + C56 + C57 + C58 + C59 <= 10
 R13: C60 + C61 + C62 + C63 + C64 <= 10
 R14: C65 + C66 + C67 + C68 + C69 <= 10
 R15: C70 + C71 + C72 + C73 + C74 <= 10
 R16: C75 + C76 + C77 + C78 + C79 <= 10
 R17: C80 + C81 + C82 + C83 + C84 <= 10
 R18: C85 + C86 + C87 + C88 + C89 <= 10
 R19: C90 + C91 + C92 + C93 + C94 <= 10
 R20: C95 + C96 + C97 + C98 + C99 <= 10
 R21: C0 + C1 + C2 + C3 + C4 + C5 + C6 + C7 + C8 + C9 + C10 + C11 + C12
   + C13 + C14 + C15 + C16 + C17 + C18 + C19 + C20 + C21 + C22 + C23 + C24
   + C25 + C26 + C27 + C28 + C29 + C30 + C31 + C32 + C33 + C34 + C35 + C36
   + C37 + C38 + C39 + C40 + C41 + C42 + C43 + C44 + C45 + C46 + C47 + C48
   + C49 + C50 + C51 + C52 + C53 + C54 + C55 + C56 + C57 + C58 + C59 + C60
   + C61 + C62 + C63 + C64 + C65 + C66 + C67 + C68 + C69 + C70 + C71 + C72
   + C73 + C74 + C75 + C76 + C77 + C78 + C79 + C80 + C81 + C82 + C83 + C84
   + C85 + C86 + C87 + C88 + C89 + C90 + C91 + C92 + C93 + C94 + C95 + C96
   + C97 + C98 + C99 <= 1
 R22: C0 + C1 + C2 + C3 + C4 <= 1
 R23: C5 + C6 + C7 + C8 + C9 <= 1
 R24: C10 + C11 + C12 + C13 + C14 <= 1
 R25: C15 + C16 + C17 + C18 + C19 <= 1
 R26: C20 + C21 + C22 + C23 + C24 <= 1
 R27: C25 + C26 + C27 + C28 + C29 <= 1
 R28: C30 + C31 + C32 + C33 + C34 <= 1
 R29: C35 + C36 + C37 + C38 + C39 <= 1
 R30: C40 + C41 + C42 + C43 + C44 <= 1
 R31: C45 + C46 + C47 + C48 + C49 <= 1
 R32: C50 + C51 + C52 + C53 + C54 <= 1
 R33: C55 + C56 + C57 + C58 + C59 <= 1
 R34: C60 + C61 + C62 + C63 + C64 <= 1
 R35: C65 + C66 + C67 + C68 + C69 <= 1
 R36: C70 + C71 + C72 + C73 + C74 <= 1
 R37: C75 + C76 + C77 + C78 + C79 <= 1
 R38: C80 + C81 + C82 + C83 + C84 <= 1
 R39: C85 + C86 + C87 + C88 + C89 <= 1
 R40: C90 + C91 + C92 + C93 + C94 <= 1
 R41: C95 + C96 + C97 + C98 + C99 <= 1
 R42: C0 + C1 + C2 + C3 + C4 + C5 + C6 + C7 + C8 + C9 + C10 + C11 + C12
   + C13 + C14 + C15 + C16 + C17 + C18 + C19 + C20 + C21 + C22 + C23 + C24
   + C25 + C26 + C27 + C28 + C29 + C30 + C31 + C32 + C33 + C34 + C35 + C36
   + C37 + C38 + C39 + C40 + C41 + C42 + C43 + C44 + C45 + C46 + C47 + C48
   + C49 + C50 + C51 + C52 + C53 + C54 + C55 + C56 + C57 + C58 + C59 + C60
   + C61 + C62 + C63 + C64 + C65 + C66 + C67 + C68 + C69 + C70 + C71 + C72
   + C73 + C74 + C75 + C76 + C77 + C78 + C79 + C80 + C81 + C82 + C83 + C84
   + C85 + C86 + C87 + C88 + C89 + C90 + C91 + C92 + C93 + C94 + C95 + C96
   + C97 + C98 + C99 <= 1
 R43: C0 + C1 + C2 + C3 + C4 <= 1
 R44: C5 + C6 + C7 + C8 + C9 <= 1
 R45: C10 + C11 + C12 + C13 + C14 <= 1
 R46: C15 + C16 + C17 + C18 + C19 <= 1
 R47: C20 + C21 + C22 + C23 + C24 <= 1
 R48: C25 + C26 + C27 + C28 + C29 <= 1
 R49: C30 + C31 + C32 + C33 + C34 <= 1
 R50: C35 + C36 + C37 + C38 + C39 <= 1
 R51: C40 + C41 + C42 + C43 + C44 <= 1
 R52: C45 + C46 + C47 + C48 + C49 <= 1
 R53: C50 + C51 + C52 + C53 + C54 <= 1
 R54: C55 + C56 + C57 + C58 + C59 <= 1
 R55: C60 + C61 + C62 + C63 + C64 <= 1
 R56: C65 + C66 + C67 + C68 + C69 <= 1
 R57: C70 + C71 + C72 + C73 + C74 <= 1
 R58: C75 + C76 + C77 + C78 + C79 <= 1
 R59: C80 + C81 + C82 + C83 + C84 <= 1
 R60: C85 + C86 + C87 + C88 + C89 <= 1
 R61: C90 + C91 + C92 + C93 + C94 <= 1
 R62: C95 + C96 + C97 + C98 + C99 <= 1
 R63: C0 + C1 + C2 + C3 + C4 + C5 + C6 + C7 + C8 + C9 + C10 + C11 + C12
   + C13 + C14 + C15 + C16 + C17 + C18 + C19 + C20 + C21 + C22 + C23 + C24
   + C25 + C26 + C27 + C28 + C29 + C30 + C31 + C32 + C33 + C34 + C35 + C36
   + C37 + C38 + C39 + C40 + C41 + C42 + C43 + C44 + C45 + C46 + C47 + C48
   + C49 + C50 + C51 + C52 + C53 + C54 + C55 + C56 + C57 + C58 + C59 + C60
   + C61 + C62 + C63 + C64 + C65 + C66 + C67 + C68 + C69 + C70 + C71 + C72
   + C73 + C74 + C75 + C76 + C77 + C78 + C79 + C80 + C81 + C82 + C83 + C84
   + C85 + C86 + C87 + C88 + C89 + C90 + C91 + C92 + C93 + C94 + C95 + C96
   + C97 + C98 + C99 <= 1
 R64: C0 + C1 + C2 + C3 + C4 <= 1
 R65: C5 + C6 + C7 + C8 + C9 <= 1
 R66: C10 + C11 + C12 + C13 + C14 <= 1
 R67: C15 + C16 + C17 + C18 + C19 <= 1
 R68: C20 + C21 + C22 + C23 + C24 <= 1
 R69: C25 + C26 + C27 + C28 + C29 <= 1
 R70: C30 + C31 + C32 + C33 + C34 <= 1
 R71: C35 + C36 + C37 + C38 + C39 <= 1
 R72: C40 + C41 + C42 + C43 + C44 <= 1
 R73: C45 + C46 + C47 + C48 + C49 <= 1
 R74: C50 + C51 + C52 + C53 + C54 <= 1
 R75: C55 + C56 + C57 + C58 + C59 <= 1
 R76: C60 + C61 + C62 + C63 + C64 <= 1
 R77: C65 + C66 + C67 + C68 + C69 <= 1
 R78: C70 + C71 + C72 + C73 + C74 <= 1
 R79: C75 + C76 + C77 + C78 + C79 <= 1
 R80: C80 + C81 + C82 + C83 + C84 <= 1
 R81: C85 + C86 + C87 + C88 + C89 <= 1
 R82: C90 + C91 + C92 + C93 + C94 <= 1
 R83: C95 + C96 + C97 + C98 + C99 <= 1
 R84: C0 + C1 + C2 + C3 + C4 + C5 + C6 + C7 + C8 + C9 + C10 + C11 + C12
   + C13 + C14 + C15 + C16 + C17 + C18 + C19 + C20 + C21 + C22 + C23 + C24
   + C25 + C26 + C27 + C28 + C29 + C30 + C31 + C32 + C33 + C34 + C35 + C36
   + C37 + C38 + C39 + C40 + C41 + C42 + C43 + C44 + C45 + C46 + C47 + C48
   + C49 + C50 + C51 + C52 + C53 + C54 + C55 + C56 + C57 + C58 + C59 + C60
   + C61 + C62 + C63 + C64 + C65 + C66 + C67 + C68 + C69 + C70 + C71 + C72
   + C73 + C74 + C75 + C76 + C77 + C78 + C79 + C80 + C81 + C82 + C83 + C84
   + C85 + C86 + C87 + C88 + C89 + C90 + C91 + C92 + C93 + C94 + C95 + C96
   + C97 + C98 + C99 <= 1
 R85: C0 + C1 + C2 + C3 + C4 <= 1
 R86: C5 + C6 + C7 + C8 + C9 <= 1
 R87: C10 + C11 + C12 + C13 + C14 <= 1
 R88: C15 + C16 + C17 + C18 + C19 <= 1
 R89: C20 + C21 + C22 + C23 + C24 <= 1
 R90: C25 + C26 + C27 + C28 + C29 <= 1
 R91: C30 + C31 + C32 + C33 + C34 <= 1
 R92: C35 + C36 + C37 + C38 + C39 <= 1
 R93: C40 + C41 + C42 + C43 + C44 <= 1
 R94: C45 + C46 + C47 + C48 + C49 <= 1
 R95: C50 + C51 + C52 + C53 + C54 <= 1
 R96: C55 + C56 + C57 + C58 + C59 <= 1
 R97: C60 + C61 + C62 + C63 + C64 <= 1
 R98: C65 + C66 + C67 + C68 + C69 <= 1
 R99: C70 + C71 + C72 + C73 + C74 <= 1
 R100: C75 + C76 + C77 + C78 + C79 <= 1
 R101: C80 + C81 + C82 + C83 + C84 <= 1
 R102: C85 + C86 + C87 + C88 + C89 <= 1
 R103: C90 + C91 + C92 + C93 + C94 <= 1
 R104: C95 + C96 + C97 + C98 + C99 <= 1
 R105: C0 + C1 + C2 + C3 + C4 + C5 + C6 + C7 + C8 + C9 + C10 + C11 + C12
   + C13 + C14 + C15 + C16 + C17 + C18 + C19 + C20 + C21 + C22 + C23 + C24
   + C25 + C26 + C27 + C28 + C29 + C30 + C31 + C32 + C33 + C34 + C35 + C36
   + C37 + C38 + C39 + C40 + C41 + C42 + C43 + C44 + C45 + C46 + C47 + C48
   + C49 + C50 + C51 + C52 + C53 + C54 + C55 + C56 + C57 + C58 + C59 + C60
   + C61 + C62 + C63 + C64 + C65 + C66 + C67 + C68 + C69 + C70 + C71 + C72
   + C73 + C74 + C75 + C76 + C77 + C78 + C79 + C80 + C81 + C82 + C83 + C84
   + C85 + C86 + C87 + C88 + C89 + C90 + C91 + C92 + C93 + C94 + C95 + C96
   + C97 + C98 + C99 <= 1
 R106: C0 + C1 + C2 + C3 + C4 <= 1
 R107: C5 + C6 + C7 + C8 + C9 <= 1
 R108: C10 + C11 + C12 + C13 + C14 <= 1
 R109: C15 + C16 + C17 + C18 + C19 <= 1
 R110: C20 + C21 + C22 + C23 + C24 <= 1
 R111: C25 + C26 + C27 + C28 + C29 <= 1
 R112: C30 + C31 + C32 + C33 + C34 <= 1
 R113: C35 + C36 + C37 + C38 + C39 <= 1
 R114: C40 + C41 + C42 + C43 + C44 <= 1
 R115: C45 + C46 + C47 + C48 + C49 <= 1
 R116: C50 + C51 + C52 + C53 + C54 <= 1
 R117: C55 + C56 + C57 + C58 + C59 <= 1
 R118: C60 + C61 + C62 + C63 + C64 <= 1
 R119: C65 + C66 + C67 + C68 + C69 <= 1
 R120: C70 + C71 + C72 + C73 + C74 <= 1
 R121: C75 + C76 + C77 + C78 + C79 <= 1
 R122: C80 + C81 + C82 + C83 + C84 <= 1
 R123: C85 + C86 + C87 + C88 + C89 <= 1
 R124: C90 + C91 + C92 + C93 + C94 <= 1
 R125: C95 + C96 + C97 + C98 + C99 <= 1
 R126: C0 + C1 + C2 + C3 + C4 + C5 + C6 + C7 + C8 + C9 + C10 + C11 + C12
   + C13 + C14 + C15 + C16 + C17 + C18 + C19 + C20 + C21 + C22 + C23 + C24
   + C25 + C26 + C27 + C28 + C29 + C30 + C31 + C32 + C33 + C34 + C35 + C36
   + C37 + C38 + C39 + C40 + C41 + C42 + C43 + C44 + C45 + C46 + C47 + C48
   + C49 + C50 + C51 + C52 + C53 + C54 + C55 + C56 + C57 + C58 + C59 + C60
   + C61 + C62 + C63 + C64 + C65 + C66 + C67 + C68 + C69 + C70 + C71 + C72
   + C73 + C74 + C75 + C76 + C77 + C78 + C79 + C80 + C81 + C82 + C83 + C84
   + C85 + C86 + C87 + C88 + C89 + C90 + C91 + C92 + C93 + C94 + C95 + C96
   + C97 + C98 + C99 <= 1
 R127: C0 + C1 + C2 + C3 + C4 <= 1
 R128: C5 + C6 + C7 + C8 + C9 <= 1
 R129: C10 + C11 + C12 + C13 + C14 <= 1
 R130: C15 + C16 + C17 + C18 + C19 <= 1
 R131: C20 + C21 + C22 + C23 + C24 <= 1
 R132: C25 + C26 + C27 + C28 + C29 <= 1
 R133: C30 + C31 + C32 + C33 + C34 <= 1
 R134: C35 + C36 + C37 + C38 + C39 <= 1
 R135: C40 + C41 + C42 + C43 + C44 <= 1
 R136: C45 + C46 + C47 + C48 + C49 <= 1
 R137: C50 + C51 + C52 + C53 + C54 <= 1
 R138: C55 + C56 + C57 + C58 + C59 <= 1
 R139: C60 + C61 + C62 + C63 + C64 <= 1
 R140: C65 + C66 + C67 + C68 + C69 <= 1
 R141: C70 + C71 + C72 + C73 + C74 <= 1
 R142: C75 + C76 + C77 + C78 + C79 <= 1
 R143: C80 + C81 + C82 + C83 + C84 <= 1
 R144: C85 + C86 + C87 + C88 + C89 <= 1
 R145: C90 + C91 + C92 + C93 + C94 <= 1
 R146: C95 + C96 + C97 + C98 + C99 <= 1
 R147: C0 + C1 + C2 + C3 + C4 + C5 + C6 + C7 + C8 + C9 + C10 + C11 + C12
   + C13 + C14 + C15 + C16 + C17 + C18 + C19 + C20 + C21 + C22 + C23 + C24
   + C25 + C26 + C27 + C28 + C29 + C30 + C31 + C32 + C33 + C34 + C35 + C36
   + C37 + C38 + C39 + C40 + C41 + C42 + C43 + C44 + C45 + C46 + C47 + C48
   + C49 + C50 + C51 + C52 + C53 + C54 + C55 + C56 + C57 + C58 + C59 + C60
   + C61 + C62 + C63 + C64 + C65 + C66 + C67 + C68 + C69 + C70 + C71 + C72
   + C73 + C74 + C75 + C76 + C77 + C78 + C79 + C80 + C81 + C82 + C83 + C84
   + C85 + C86 + C87 + C88 + C89 + C90 + C91 + C92 + C93 + C94 + C95 + C96
   + C97 + C98 + C99 <= 1
 R148: C0 + C1 + C2 + C3 + C4 <= 1
 R149: C5 + C6 + C7 + C8 + C9 <= 1
 R150: C10 + C11 + C12 + C13 + C14 <= 1
 R151: C15 + C16 + C17 + C18 + C19 <= 1
 R152: C20 + C21 + C22 + C23 + C24 <= 1
 R153: C25 + C26 + C27 + C28 + C29 <= 1
 R154: C30 + C31 + C32 + C33 + C34 <= 1
 R155: C35 + C36 + C37 + C38 + C39 <= 1
 R156: C40 + C41 + C42 + C43 + C44 <= 1
 R157: C45 + C46 + C47 + C48 + C49 <= 1
 R158: C50 + C51 + C52 + C53 + C54 <= 1
 R159: C55 + C56 + C57 + C58 + C59 <= 1
 R160: C60 + C61 + C62 + C63 + C64 <= 1
 R161: C65 + C66 + C67 + C68 + C69 <= 1
 R162: C70 + C71 + C72 + C73 + C74 <= 1
 R163: C75 + C76 + C77 + C78 + C79 <= 1
 R164: C80 + C81 + C82 + C83 + C84 <= 1
 R165: C85 + C86 + C87 + C88 + C89 <= 1
 R166: C90 + C91 + C92 + C93 + C94 <= 1
 R167: C95 + C96 + C97 + C98 + C99 <= 1
 R168: C0 + C1 + C2 + C3 + C4 + C5 + C6 + C7 + C8 + C9 + C10 + C11 + C12
   + C13 + C14 + C15 + C16 + C17 + C18 + C19 + C20 + C21 + C22 + C23 + C24
   + C25 + C26 + C27 + C28 + C29 + C30 + C31 + C32 + C33 + C34 + C35 + C36
   + C37 + C38 + C39 + C40 + C41 + C42 + C43 + C44 + C45 + C46 + C47 + C48
   + C49 + C50 + C51 + C52 + C53 + C54 + C55 + C56 + C57 + C58 + C59 + C60
   + C61 + C62 + C63 + C64 + C65 + C66 + C67 + C68 + C69 + C70 + C71 + C72
   + C73 + C74 + C75 + C76 + C77 + C78 + C79 + C80 + C81 + C82 + C83 + C84
   + C85 + C86 + C87 + C88 + C89 + C90 + C91 + C92 + C93 + C94 + C95 + C96
   + C97 + C98 + C99 <= 1
 R169: C0 + C1 + C2 + C3 + C4 <= 1
 R170: C5 + C6 + C7 + C8 + C9 <= 1
 R171: C10 + C11 + C12 + C13 + C14 <= 1
 R172: C15 + C16 + C17 + C18 + C19 <= 1
 R173: C20 + C21 + C22 + C23 + C24 <= 1
 R174: C25 + C26 + C27 + C28 + C29 <= 1
 R175: C30 + C31 + C32 + C33 + C34 <= 1
 R176: C35 + C36 + C37 + C38 + C39 <= 1
 R177: C40 + C41 + C42 + C43 + C44 <= 1
 R178: C45 + C46 + C47 + C48 + C49 <= 1
 R179: C50 + C51 + C52 + C53 + C54 <= 1
 R180: C55 + C56 + C57 + C58 + C59 <= 1
 R181: C60 + C61 + C62 + C63 + C64 <= 1
 R182: C65 + C66 + C67 + C68 + C69 <= 1
 R183: C70 + C71 + C72 + C73 + C74 <= 1
 R184: C75 + C76 + C77 + C78 + C79 <= 1
 R185: C80 + C81 + C82 + C83 + C84 <= 1
 R186: C85 + C86 + C87 + C88 + C89 <= 1
 R187: C90 + C91 + C92 + C93 + C94 <= 1
 R188: C95 + C96 + C97 + C98 + C99 <= 1
 R189: C0 + C1 + C2 + C3 + C4 + C5 + C6 + C7 + C8 + C9 + C10 + C11 + C12
   + C13 + C14 + C15 + C16 + C17 + C18 + C19 + C20 + C21 + C22 + C23 + C24
   + C25 + C26 + C27 + C28 + C29 + C30 + C31 + C32 + C33 + C34 + C35 + C36
   + C37 + C38 + C39 + C40 + C41 + C42 + C43 + C44 + C45 + C46 + C47 + C48
   + C49 + C50 + C51 + C52 + C53 + C54 + C55 + C56 + C57 + C58 + C59 + C60
   + C61 + C62 + C63 + C64 + C65 + C66 + C67 + C68 + C69 + C70 + C71 + C72
   + C73 + C74 + C75 + C76 + C77 + C78 + C79 + C80 + C81 + C82 + C83 + C84
   + C85 + C86 + C87 + C88 + C89 + C90 + C91 + C92 + C93 + C94 + C95 + C96
   + C97 + C98 + C99 <= 1
 R190: C0 + C1 + C2 + C3 + C4 <= 1
 R191: C5 + C6 + C7 + C8 + C9 <= 1
 R192: C10 + C11 + C12 + C13 + C14 <= 1
 R193: C15 + C16 + C17 + C18 + C19 <= 1
 R194: C20 + C21 + C22 + C23 + C24 <= 1
 R195: C25 + C26 + C27 + C28 + C29 <= 1
 R196: C30 + C31 + C32 + C33 + C34 <= 1
 R197: C35 + C36 + C37 + C38 + C39 <= 1
 R198: C40 + C41 + C42 + C43 + C44 <= 1
 R199: C45 + C46 + C47 + C48 + C49 <= 1
 R200: C50 + C51 + C52 + C53 + C54 <= 1
 R201: C55 + C56 + C57 + C58 + C59 <= 1
 R202: C60 + C61 + C62 + C63 + C64 <= 1
 R203: C65 + C66 + C67 + C68 + C69 <= 1
 R204: C70 + C71 + C72 + C73 + C74 <= 1
 R205: C75 + C76 + C77 + C78 + C79 <= 1
 R206: C80 + C81 + C82 + C83 + C84 <= 1
 R207: C85 + C86 + C87 + C88 + C89 <= 1
 R208: C90 + C91 + C92 + C93 + C94 <= 1
 R209: C95 + C96 + C97 + C98 + C99 <= 1
 R210: C0 + C1 + C2 + C3 + C4 + C5 + C6 + C7 + C8 + C9 + C10 + C11 + C12
   + C13 + C14 + C15 + C16 + C17 + C18 + C19 + C20 + C21 + C22 + C23 + C24
   + C25 + C26 + C27 + C28 + C29 + C30 + C31 + C32 + C33 + C34 + C35 + C36
   + C37 + C38 + C39 + C40 + C41 + C42 + C43 + C44 + C45 + C46 + C47 + C48
   + C49 + C50 + C51 + C52 + C53 + C54 + C55 + C56 + C57 + C58 + C59 + C60
   + C61 + C62 + C63 + C64 + C65 + C66 + C67 + C68 + C69 + C70 + C71 + C72
   + C73 + C74 + C75 + C76 + C77 + C78 + C79 + C80 + C81 + C82 + C83 + C84
   + C85 + C86 + C87 + C88 + C89 + C90 + C91 + C92 + C93 + C94 + C95 + C96
   + C97 + C98 + C99 <= 1
 R211: C0 + C1 + C2 + C3 + C4 <= 1
 R212: C5 + C6 + C7 + C8 + C9 <= 1
 R213: C10 + C11 + C12 + C13 + C14 <= 1
 R214: C15 + C16 + C17 + C18 + C19 <= 1
 R215: C20 + C21 + C22 + C23 + C24 <= 1
 R216: C25 + C26 + C27 + C28 + C29 <= 1
 R217: C30 + C31 + C32 + C33 + C34 <= 1
 R218: C35 + C36 + C37 + C38 + C39 <= 1
 R219: C40 + C41 + C42 + C43 + C44 <= 1
 R220: C45 + C46 + C47 + C48 + C49 <= 1
 R221: C50 + C51 + C52 + C53 + C54 <= 1
 R222: C55 + C56 + C57 + C58 + C59 <= 1
 R223: C60 + C61 + C62 + C63 + C64 <= 1
 R224: C65 + C66 + C67 + C68 + C69 <= 1
 R225: C70 + C71 + C72 + C73 + C74 <= 1
 R226: C75 + C76 + C77 + C78 + C79 <= 1
 R227: C80 + C81 + C82 + C83 + C84 <= 1
 R228: C85 + C86 + C87 + C88 + C89 <= 1
 R229: C90 + C91 + C92 + C93 + C94 <= 1
 R230: C95 + C96 + C97 + C98 + C99 <= 1
 R231: C0 + C1 + C2 + C3 + C4 + C5 + C6 + C7 + C8 + C9 + C10 + C11 + C12
   + C13 + C14 + C15 + C16 + C17 + C18 + C19 + C20 + C21 + C22 + C23 + C24
   + C25 + C26 + C27 + C28 + C29 + C30 + C31 + C32 + C33 + C34 + C35 + C36
   + C37 + C38 + C39 + C40 + C41 + C42 + C43 + C44 + C45 + C46 + C47 + C48
   + C49 + C50 + C51 + C52 + C53 + C54 + C55 + C56 + C57 + C58 + C59 + C60
   + C61 + C62 + C63 + C64 + C65 + C66 + C67 + C68 + C69 + C70 + C71 + C72
   + C73 + C74 + C75 + C76 + C77 + C78 + C79 + C80 + C81 + C82 + C83 + C84
   + C85 + C86 + C87 + C88 + C89 + C90 + C91 + C92 + C93 + C94 + C95 + C96
   + C97 + C98 + C99 <= 1
 R232: C0 + C1 + C2 + C3 + C4 <= 1
 R233: C5 + C6 + C7 + C8 + C9 <= 1
 R234: C10 + C11 + C12 + C13 + C14 <= 1
 R235: C15 + C16 + C17 + C18 + C19 <= 1
 R236: C20 + C21 + C22 + C23 + C24 <= 1
 R237: C25 + C26 + C27 + C28 + C29 <= 1
 R238: C30 + C31 + C32 + C33 + C34 <= 1
 R239: C35 + C36 + C37 + C38 + C39 <= 1
 R240: C40 + C41 + C42 + C43 + C44 <= 1
 R241: C45 + C46 + C47 + C48 + C49 <= 1
 R242: C50 + C51 + C52 + C53 + C54 <= 1
 R243: C55 + C56 + C57 + C58 + C59 <= 1
 R244: C60 + C61 + C62 + C63 + C64 <= 1
 R245: C65 + C66 + C67 + C68 + C69 <= 1
 R246: C70 + C71 + C72 + C73 + C74 <= 1
 R247: C75 + C76 + C77 + C78 + C79 <= 1
 R248: C80 + C81 + C82 + C83 + C84 <= 1
 R249: C85 + C86 + C87 + C88 + C89 <= 1
 R250: C90 + C91 + C92 + C93 + C94 <= 1
 R251: C95 + C96 + C97 + C98 + C99 <= 1
 R252: C0 + C1 + C2 + C3 + C4 + C5 + C6 + C7 + C8 + C9 + C10 + C11 + C12
   + C13 + C14 + C15 + C16 + C17 + C18 + C19 + C20 + C21 + C22 + C23 + C24
   + C25 + C26 + C27 + C28 + C29 + C30 + C31 + C32 + C33 + C34 + C35 + C36
   + C37 + C38 + C39 + C40 + C41 + C42 + C43 + C44 + C45 + C46 + C47 + C48
   + C49 + C50 + C51 + C52 + C53 + C54 + C55 + C56 + C57 + C58 + C59 + C60
   + C61 + C62 + C63 + C64 + C65 + C66 + C67 + C68 + C69 + C70 + C71 + C72
   + C73 + C74 + C75 + C76 + C77 + C78 + C79 + C80 + C81 + C82 + C83 + C84
   + C85 + C86 + C87 + C88 + C89 + C90 + C91 + C92 + C93 + C94 + C95 + C96
   + C97 + C98 + C99 <= 1
 R253: C0 + C1 + C2 + C3 + C4 <= 1
 R254: C5 + C6 + C7 + C8 + C9 <= 1
 R255: C10 + C11 + C12 + C13 + C14 <= 1
 R256: C15 + C16 + C17 + C18 + C19 <= 1
 R257: C20 + C21 + C22 + C23 + C24 <= 1
 R258: C25 + C26 + C27 + C28 + C29 <= 1
 R259: C30 + C31 + C32 + C33 + C34 <= 1
 R260: C35 + C36 + C37 + C38 + C39 <= 1
 R261: C40 + C41 + C42 + C43 + C44 <= 1
 R262: C45 + C46 + C47 + C48 + C49 <= 1
 R263: C50 + C51 + C52 + C53 + C54 <= 1
 R264: C55 + C56 + C57 + C58 + C59 <= 1
 R265: C60 + C61 + C62 + C63 + C64 <= 1
 R266: C65 + C66 + C67 + C68 + C69 <= 1
 R267: C70 + C71 + C72 + C73 + C74 <= 1
 R268: C75 + C76 + C77 + C78 + C79 <= 1
 R269: C80 + C81 + C82 + C83 + C84 <= 1
 R270: C85 + C86 + C87 + C88 + C89 <= 1
 R271: C90 + C91 + C92 + C93 + C94 <= 1
 R272: C95 + C96 + C97 + C98 + C99 <= 1
 R273: C0 + C1 + C2 + C3 + C4 + C5 + C6 + C7 + C8 + C9 + C10 + C11 + C12
   + C13 + C14 + C15 + C16 + C17 + C18 + C19 + C20 + C21 + C22 + C23 + C24
   + C25 + C26 + C27 + C28 + C29 + C30 + C31 + C32 + C33 + C34 + C35 + C36
   + C37 + C38 + C39 + C40 + C41 + C42 + C43 + C44 + C45 + C46 + C47 + C48
   + C49 + C50 + C51 + C52 + C53 + C54 + C55 + C56 + C57 + C58 + C59 + C60
   + C61 + C62 + C63 + C64 + C65 + C66 + C67 + C68 + C69 + C70 + C71 + C72
   + C73 + C74 + C75 + C76 + C77 + C78 + C79 + C80 + C81 + C82 + C83 + C84
   + C85 + C86 + C87 + C88 + C89 + C90 + C91 + C92 + C93 + C94 + C95 + C96
   + C97 + C98 + C99 <= 1
 R274: C0 + C1 + C2 + C3 + C4 <= 1
 R275: C5 + C6 + C7 + C8 + C9 <= 1
 R276: C10 + C11 + C12 + C13 + C14 <= 1
 R277: C15 + C16 + C17 + C18 + C19 <= 1
 R278: C20 + C21 + C22 + C23 + C24 <= 1
 R279: C25 + C26 + C27 + C28 + C29 <= 1
 R280: C30 + C31 + C32 + C33 + C34 <= 1
 R281: C35 + C36 + C37 + C38 + C39 <= 1
 R282: C40 + C41 + C42 + C43 + C44 <= 1
 R283: C45 + C46 + C47 + C48 + C49 <= 1
 R284: C50 + C51 + C52 + C53 + C54 <= 1
 R285: C55 + C56 + C57 + C58 + C59 <= 1
 R286: C60 + C61 + C62 + C63 + C64 <= 1
 R287: C65 + C66 + C67 + C68 + C69 <= 1
 R288: C70 + C71 + C72 + C73 + C74 <= 1
 R289: C75 + C76 + C77 + C78 + C79 <= 1
 R290: C80 + C81 + C82 + C83 + C84 <= 1
 R291: C85 + C86 + C87 + C88 + C89 <= 1
 R292: C90 + C91 + C92 + C93 + C94 <= 1
 R293: C95 + C96 + C97 + C98 + C99 <= 1
 R294: C0 + C1 + C2 + C3 + C4 + C5 + C6 + C7 + C8 + C9 + C10 + C11 + C12
   + C13 + C14 + C15 + C16 + C17 + C18 + C19 + C20 + C21 + C22 + C23 + C24
   + C25 + C26 + C27 + C28 + C29 + C30 + C31 + C32 + C33 + C34 + C35 + C36
   + C37 + C38 + C39 + C40 + C41 + C42 + C43 + C44 + C45 + C46 + C47 + C48
   + C49 + C50 + C51 + C52 + C53 + C54 + C55 + C56 + C57 + C58 + C59 + C60
   + C61 + C62 + C63 + C64 + C65 + C66 + C67 + C68 + C69 + C70 + C71 + C72
   + C73 + C74 + C75 + C76 + C77 + C78 + C79 + C80 + C81 + C82 + C83 + C84
   + C85 + C86 + C87 + C88 + C89 + C90 + C91 + C92 + C93 + C94 + C95 + C96
   + C97 + C98 + C99 <= 1
 R295: C0 + C1 + C2 + C3 + C4 <= 1
 R296: C5 + C6 + C7 + C8 + C9 <= 1
 R297: C10 + C11 + C12 + C13 + C14 <= 1
 R298: C15 + C16 + C17 + C18 + C19 <= 1
 R299: C20 + C21 + C22 + C23 + C24 <= 1
 R300: C25 + C26 + C27 + C28 + C29 <= 1
 R301: C30 + C31 + C32 + C33 + C34 <= 1
 R302: C35 + C36 + C37 + C38 + C39 <= 1
 R303: C40 + C41 + C42 + C43 + C44 <= 1
 R304: C45 + C46 + C47 + C48 + C49 <= 1
 R305: C50 + C51 + C52 + C53 + C54 <= 1
 R306: C55 + C56 + C57 + C58 + C59 <= 1
 R307: C60 + C61 + C62 + C63 + C64 <= 1
 R308: C65 + C66 + C67 + C68 + C69 <= 1
 R309: C70 + C71 + C72 + C73 + C74 <= 1
 R310: C75 + C76 + C77 + C78 + C79 <= 1
 R311: C80 + C81 + C82 + C83 + C84 <= 1
 R312: C85 + C86 + C87 + C88 + C89 <= 1
 R313: C90 + C91 + C92 + C93 + C94 <= 1
 R314: C95 + C96 + C97 + C98 + C99 <= 1
 R315: C0 + C1 + C2 + C3 + C4 + C5 + C6 + C7 + C8 + C9 + C10 + C11 + C12
   + C13 + C14 + C15 + C16 + C17 + C18 + C19 + C20 + C21 + C22 + C23 + C24
   + C25 + C26 + C27 + C28 + C29 + C30 + C31 + C32 + C33 + C34 + C35 + C36
   + C37 + C38 + C39 + C40 + C41 + C42 + C43 + C44 + C45 + C46 + C47 + C48
   + C49 + C50 + C51 + C52 + C53 + C54 + C55 + C56 + C57 + C58 + C59 + C60
   + C61 + C62 + C63 + C64 + C65 + C66 + C67 + C68 + C69 + C70 + C71 + C72
   + C73 + C74 + C75 + C76 + C77 + C78 + C79 + C80 + C81 + C82 + C83 + C84
   + C85 + C86 + C87 + C88 + C89 + C90 + C91 + C92 + C93 + C94 + C95 + C96
   + C97 + C98 + C99 <= 1
 R316: C0 + C1 + C2 + C3 + C4 <= 1
 R317: C5 + C6 + C7 + C8 + C9 <= 1
 R318: C10 + C11 + C12 + C13 + C14 <= 1
 R319: C15 + C16 + C17 + C18 + C19 <= 1
 R320: C20 + C21 + C22 + C23 + C24 <= 1
 R321: C25 + C26 + C27 + C28 + C29 <= 1
 R322: C30 + C31 + C32 + C33 + C34 <= 1
 R323: C35 + C36 + C37 + C38 + C39 <= 1
 R324: C40 + C41 + C42 + C43 + C44 <= 1
 R325: C45 + C46 + C47 + C48 + C49 <= 1
 R326: C50 + C51 + C52 + C53 + C54 <= 1
 R327: C55 + C56 + C57 + C58 + C59 <= 1
 R328: C60 + C61 + C62 + C63 + C64 <= 1
 R329: C65 + C66 + C67 + C68 + C69 <= 1
 R330: C70 + C71 + C72 + C73 + C74 <= 1
 R331: C75 + C76 + C77 + C78 + C79 <= 1
 R332: C80 + C81 + C82 + C83 + C84 <= 1
 R333: C85 + C86 + C87 + C88 + C89 <= 1
 R334: C90 + C91 + C92 + C93 + C94 <= 1
 R335: C95 + C96 + C97 + C98 + C99 <= 1
 R336: C0 + C1 + C2 + C3 + C4 + C5 + C6 + C7 + C8 + C9 + C10 + C11 + C12
   + C13 + C14 + C15 + C16 + C17 + C18 + C19 + C20 + C21 + C22 + C23 + C24
   + C25 + C26 + C27 + C28 + C29 + C30 + C31 + C32 + C33 + C34 + C35 + C36
   + C37 + C38 + C39 + C40 + C41 + C42 + C43 + C44 + C45 + C46 + C47 + C48
   + C49 + C50 + C51 + C52 + C53 + C54 + C55 + C56 + C57 + C58 + C59 + C60
   + C61 + C62 + C63 + C64 + C65 + C66 + C67 + C68 + C69 + C70 + C71 + C72
   + C73 + C74 + C75 + C76 + C77 + C78 + C79 + C80 + C81 + C82 + C83 + C84
   + C85 + C86 + C87 + C88 + C89 + C90 + C91 + C92 + C93 + C94 + C95 + C96
   + C97 + C98 + C99 <= 1
 R337: C0 + C1 + C2 + C3 + C4 <= 1
 R338: C5 + C6 + C7 + C8 + C9 <= 1
 R339: C10 + C11 + C12 + C13 + C14 <= 1
 R340: C15 + C16 + C17 + C18 + C19 <= 1
 R341: C20 + C21 + C22 + C23 + C24 <= 1
 R342: C25 + C26 + C27 + C28 + C29 <= 1
 R343: C30 + C31 + C32 + C33 + C34 <= 1
 R344: C35 + C36 + C37 + C38 + C39 <= 1
 R345: C40 + C41 + C42 + C43 + C44 <= 1
 R346: C45 + C46 + C47 + C48 + C49 <= 1
 R347: C50 + C51 + C52 + C53 + C54 <= 1
 R348: C55 + C56 + C57 + C58 + C59 <= 1
 R349: C60 + C61 + C62 + C63 + C64 <= 1
 R350: C65 + C66 + C67 + C68 + C69 <= 1
 R351: C70 + C71 + C72 + C73 + C74 <= 1
 R352: C75 + C76 + C77 + C78 + C79 <= 1
 R353: C80 + C81 + C82 + C83 + C84 <= 1
 R354: C85 + C86 + C87 + C88 + C89 <= 1
 R355: C90 + C91 + C92 + C93 + C94 <= 1
 R356: C95 + C96 + C97 + C98 + C99 <= 1
 R357: C0 + C1 + C2 + C3 + C4 + C5 + C6 + C7 + C8 + C9 + C10 + C11 + C12
   + C13 + C14 + C15 + C16 + C17 + C18 + C19 + C20 + C21 + C22 + C23 + C24
   + C25 + C26 + C27 + C28 + C29 + C30 + C31 + C32 + C33 + C34 + C35 + C36
   + C37 + C38 + C39 + C40 + C41 + C42 + C43 + C44 + C45 + C46 + C47 + C48
   + C49 + C50 + C51 + C52 + C53 + C54 + C55 + C56 + C57 + C58 + C59 + C60
   + C61 + C62 + C63 + C64 + C65 + C66 + C67 + C68 + C69 + C70 + C71 + C72
   + C73 + C74 + C75 + C76 + C77 + C78 + C79 + C80 + C81 + C82 + C83 + C84
   + C85 + C86 + C87 + C88 + C89 + C90 + C91 + C92 + C93 + C94 + C95 + C96
   + C97 + C98 + C99 <= 1
 R358: C0 + C1 + C2 + C3 + C4 <= 1
 R359: C5 + C6 + C7 + C8 + C9 <= 1
 R360: C10 + C11 + C12 + C13 + C14 <= 1
 R361: C15 + C16 + C17 + C18 + C19 <= 1
 R362: C20 + C21 + C22 + C23 + C24 <= 1
 R363: C25 + C26 + C27 + C28 + C29 <= 1
 R364: C30 + C31 + C32 + C33 + C34 <= 1
 R365: C35 + C36 + C37 + C38 + C39 <= 1
 R366: C40 + C41 + C42 + C43 + C44 <= 1
 R367: C45 + C46 + C47 + C48 + C49 <= 1
 R368: C50 + C51 + C52 + C53 + C54 <= 1
 R369: C55 + C56 + C57 + C58 + C59 <= 1
 R370: C60 + C61 + C62 + C63 + C64 <= 1
 R371: C65 + C66 + C67 + C68 + C69 <= 1
 R372: C70 + C71 + C72 + C73 + C74 <= 1
 R373: C75 + C76 + C77 + C78 + C79 <= 1
 R374: C80 + C81 + C82 + C83 + C84 <= 1
 R375: C85 + C86 + C87 + C88 + C89 <= 1
 R376: C90 + C91 + C92 + C93 + C94 <= 1
 R377: C95 + C96 + C97 + C98 + C99 <= 1
 R378: C0 + C1 + C2 + C3 + C4 + C5 + C6 + C7 + C8 + C9 + C10 + C11 + C12
   + C13 + C14 + C15 + C16 + C17 + C18 + C19 + C20 + C21 + C22 + C23 + C24
   + C25 + C26 + C27 + C28 + C29 + C30 + C31 + C32 + C33 + C34 + C35 + C36
   + C37 + C38 + C39 + C40 + C41 + C42 + C43 + C44 + C45 + C46 + C47 + C48
   + C49 + C50 + C51 + C52 + C53 + C54 + C55 + C56 + C57 + C58 + C59 + C60
   + C61 + C62 + C63 + C64 + C65 + C66 + C67 + C68 + C69 + C70 + C71 + C72
   + C73 + C74 + C75 + C76 + C77 + C78 + C79 + C80 + C81 + C82 + C83 + C84
   + C85 + C86 + C87 + C88 + C89 + C90 + C91 + C92 + C93 + C94 + C95 + C96
   + C97 + C98 + C99 <= 1
 R379: C0 + C1 + C2 + C3 + C4 <= 1
 R380: C5 + C6 + C7 + C8 + C9 <= 1
 R381: C10 + C11 + C12 + C13 + C14 <= 1
 R382: C15 + C16 + C17 + C18 + C19 <= 1
 R383: C20 + C21 + C22 + C23 + C24 <= 1
 R384: C25 + C26 + C27 + C28 + C29 <= 1
 R385: C30 + C31 + C32 + C33 + C34 <= 1
 R386: C35 + C36 + C37 + C38 + C39 <= 1
 R387: C40 + C41 + C42 + C43 + C44 <= 1
 R388: C45 + C46 + C47 + C48 + C49 <= 1
 R389: C50 + C51 + C52 + C53 + C54 <= 1
 R390: C55 + C56 + C57 + C58 + C59 <= 1
 R391: C60 + C61 + C62 + C63 + C64 <= 1
 R392: C65 + C66 + C67 + C68 + C69 <= 1
 R393: C70 + C71 + C72 + C73 + C74 <= 1
 R394: C75 + C76 + C77 + C78 + C79 <= 1
 R395: C80 + C81 + C82 + C83 + C84 <= 1
 R396: C85 + C86 + C87 + C88 + C89 <= 1
 R397: C90 + C91 + C92 + C93 + C94 <= 1
 R398: C95 + C96 + C97 + C98 + C99 <= 1
 R399: C0 + C1 + C2 + C3 + C4 + C5 + C6 + C7 + C8 + C9 + C10 + C11 + C12
   + C13 + C14 + C15 + C16 + C17 + C18 + C19 + C20 + C21 + C22 + C23 + C24
   + C25 + C26 + C27 + C28 + C29 + C30 + C31 + C32 + C33 + C34 + C35 + C36
   + C37 + C38 + C39 + C40 + C41 + C42 + C43 + C44 + C45 + C46 + C47 + C48
   + C49 + C50 + C51 + C52 + C53 + C54 + C55 + C56 + C57 + C58 + C59 + C60
   + C61 + C62 + C63 + C64 + C65 + C66 + C67 + C68 + C69 + C70 + C71 + C72
   + C73 + C74 + C75 + C76 + C77 + C78 + C79 + C80 + C81 + C82 + C83 + C84
   + C85 + C86 + C87 + C88 + C89 + C90 + C91 + C92 + C93 + C94 + C95 + C96
   + C97 + C98 + C99 <= 1
 R400: C0 + C1 + C2 + C3 + C4 <= 1
 R401: C5 + C6 + C7 + C8 + C9 <= 1
 R402: C10 + C11 + C12 + C13 + C14 <= 1
 R403: C15 + C16 + C17 + C18 + C19 <= 1
 R404: C20 + C21 + C22 + C23 + C24 <= 1
 R405: C25 + C26 + C27 + C28 + C29 <= 1
 R406: C30 + C31 + C32 + C33 + C34 <= 1
 R407: C35 + C36 + C37 + C38 + C39 <= 1
 R408: C40 + C41 + C42 + C43 + C44 <= 1
 R409: C45 + C46 + C47 + C48 + C49 <= 1
 R410: C50 + C51 + C52 + C53 + C54 <= 1
 R411: C55 + C56 + C57 + C58 + C59 <= 1
 R412: C60 + C61 + C62 + C63 + C64 <= 1
 R413: C65 + C66 + C67 + C68 + C69 <= 1
 R414: C70 + C71 + C72 + C73 + C74 <= 1
 R415: C75 + C76 + C77 + C78 + C79 <= 1
 R416: C80 + C81 + C82 + C83 + C84 <= 1
 R417: C85 + C86 + C87 + C88 + C89 <= 1
 R418: C90 + C91 + C92 + C93 + C94 <= 1
 R419: C95 + C96 + C97 + C98 + C99 <= 1
 R420: C0 + C1 + C2 + C3 + C4 + C5 + C6 + C7 + C8 + C9 + C10 + C11 + C12
   + C13 + C14 + C15 + C16 + C17 + C18 + C19 + C20 + C21 + C22 + C23 + C24
   + C25 + C26 + C27 + C28 + C29 + C30 + C31 + C32 + C33 + C34 + C35 + C36
   + C37 + C38 + C39 + C40 + C41 + C42 + C43 + C44 + C45 + C46 + C47 + C48
   + C49 + C50 + C51 + C52 + C53 + C54 + C55 + C56 + C57 + C58 + C59 + C60
   + C61 + C62 + C63 + C64 + C65 + C66 + C67 + C68 + C69 + C70 + C71 + C72
   + C73 + C74 + C75 + C76 + C77 + C78 + C79 + C80 + C81 + C82 + C83 + C84
   + C85 + C86 + C87 + C88 + C89 + C90 + C91 + C92 + C93 + C94 + C95 + C96
   + C97 + C98 + C99 <= 1
 R421: C0 + C1 + C2 + C3 + C4 <= 1
 R422: C5 + C6 + C7 + C8 + C9 <= 1
 R423: C10 + C11 + C12 + C13 + C14 <= 1
 R424: C15 + C16 + C17 + C18 + C19 <= 1
 R425: C20 + C21 + C22 + C23 + C24 <= 1
 R426: C25 + C26 + C27 + C28 + C29 <= 1
 R427: C30 + C31 + C32 + C33 + C34 <= 1
 R428: C35 + C36 + C37 + C38 + C39 <= 1
 R429: C40 + C41 + C42 + C43 + C44 <= 1
 R430: C45 + C46 + C47 + C48 + C49 <= 1
 R431: C50 + C51 + C52 + C53 + C54 <= 1
 R432: C55 + C56 + C57 + C58 + C59 <= 1
 R433: C60 + C61 + C62 + C63 + C64 <= 1
 R434: C65 + C66 + C67 + C68 + C69 <= 1
 R435: C70 + C71 + C72 + C73 + C74 <= 1
 R436: C75 + C76 + C77 + C78 + C79 <= 1
 R437: C80 + C81 + C82 + C83 + C84 <= 1
 R438: C85 + C86 + C87 + C88 + C89 <= 1
 R439: C90 + C91 + C92 + C93 + C94 <= 1
 R440: C95 + C96 + C97 + C98 + C99 <= 1
 R441: C0 + C5 + C10 + C15 + C20 + C25 + C30 + C35 + C40 + C45 + C50 + C55
   + C60 + C65 + C70 + C75 + C80 + C85 + C90 + C95 >= 1
 R442: C1 + C6 + C11 + C16 + C21 + C26 + C31 + C36 + C41 + C46 + C51 + C56
   + C61 + C66 + C71 + C76 + C81 + C86 + C91 + C96 >= 1
 R443: C2 + C7 + C12 + C17 + C22 + C27 + C32 + C37 + C42 + C47 + C52 + C57
   + C62 + C67 + C72 + C77 + C82 + C87 + C92 + C97 >= 1
 R444: C3 + C8 + C13 + C18 + C23 + C28 + C33 + C38 + C43 + C48 + C53 + C58
   + C63 + C68 + C73 + C78 + C83 + C88 + C93 + C98 >= 1
 R445: C4 + C9 + C14 + C19 + C24 + C29 + C34 + C39 + C44 + C49 + C54 + C59
   + C64 + C69 + C74 + C79 + C84 + C89 + C94 + C99 >= 1
 R446: C0 + C5 + C10 + C15 + C20 + C25 + C30 + C35 + C40 + C45 + C50 + C55
   + C60 + C65 + C70 + C75 + C80 + C85 + C90 + C95 >= 1
 R447: C1 + C6 + C11 + C16 + C21 + C26 + C31 + C36 + C41 + C46 + C51 + C56
   + C61 + C66 + C71 + C76 + C81 + C86 + C91 + C96 >= 1
 R448: C2 + C7 + C12 + C17 + C22 + C27 + C32 + C37 + C42 + C47 + C52 + C57
   + C62 + C67 + C72 + C77 + C82 + C87 + C92 + C97 >= 1
 R449: C3 + C8 + C13 + C18 + C23 + C28 + C33 + C38 + C43 + C48 + C53 + C58
   + C63 + C68 + C73 + C78 + C83 + C88 + C93 + C98 >= 1
 R450: C4 + C9 + C14 + C19 + C24 + C29 + C34 + C39 + C44 + C49 + C54 + C59
   + C64 + C69 + C74 + C79 + C84 + C89 + C94 + C99 >= 1
 R451: C0 + C5 + C10 + C15 + C20 + C25 + C30 + C35 + C40 + C45 + C50 + C55
   + C60 + C65 + C70 + C75 + C80 + C85 + C90 + C95 >= 1
 R452: C1 + C6 + C11 + C16 + C21 + C26 + C31 + C36 + C41 + C46 + C51 + C56
   + C61 + C66 + C71 + C76 + C81 + C86 + C91 + C96 >= 1
 R453: C2 + C7 + C12 + C17 + C22 + C27 + C32 + C37 + C42 + C47 + C52 + C57
   + C62 + C67 + C72 + C77 + C82 + C87 + C92 + C97 >= 1
 R454: C3 + C8 + C13 + C18 + C23 + C28 + C33 + C38 + C43 + C48 + C53 + C58
   + C63 + C68 + C73 + C78 + C83 + C88 + C93 + C98 >= 1
 R455: C4 + C9 + C14 + C19 + C24 + C29 + C34 + C39 + C44 + C49 + C54 + C59
   + C64 + C69 + C74 + C79 + C84 + C89 + C94 + C99 >= 1
 R456: C0 + C5 + C10 + C15 + C20 + C25 + C30 + C35 + C40 + C45 + C50 + C55
   + C60 + C65 + C70 + C75 + C80 + C85 + C90 + C95 >= 1
 R457: C1 + C6 + C11 + C16 + C21 + C26 + C31 + C36 + C41 + C46 + C51 + C56
   + C61 + C66 + C71 + C76 + C81 + C86 + C91 + C96 >= 1
 R458: C2 + C7 + C12 + C17 + C22 + C27 + C32 + C37 + C42 + C47 + C52 + C57
   + C62 + C67 + C72 + C77 + C82 + C87 + C92 + C97 >= 1
 R459: C3 + C8 + C13 + C18 + C23 + C28 + C33 + C38 + C43 + C48 + C53 + C58
   + C63 + C68 + C73 + C78 + C83 + C88 + C93 + C98 >= 1
 R460: C4 + C9 + C14 + C19 + C24 + C29 + C34 + C39 + C44 + C49 + C54 + C59
   + C64 + C69 + C74 + C79 + C84 + C89 + C94 + C99 >= 1
 R461: C0 + C5 + C10 + C15 + C20 + C25 + C30 + C35 + C40 + C45 + C50 + C55
   + C60 + C65 + C70 + C75 + C80 + C85 + C90 + C95 >= 1
 R462: C1 + C6 + C11 + C16 + C21 + C26 + C31 + C36 + C41 + C46 + C51 + C56
   + C61 + C66 + C71 + C76 + C81 + C86 + C91 + C96 >= 1
 R463: C2 + C7 + C12 + C17 + C22 + C27 + C32 + C37 + C42 + C47 + C52 + C57
   + C62 + C67 + C72 + C77 + C82 + C87 + C92 + C97 >= 1
 R464: C3 + C8 + C13 + C18 + C23 + C28 + C33 + C38 + C43 + C48 + C53 + C58
   + C63 + C68 + C73 + C78 + C83 + C88 + C93 + C98 >= 1
 R465: C4 + C9 + C14 + C19 + C24 + C29 + C34 + C39 + C44 + C49 + C54 + C59
   + C64 + C69 + C74 + C79 + C84 + C89 + C94 + C99 >= 1
Bounds
 C0 <= 1
 C1 <= 1
 C2 <= 1
 C3 <= 1
 C4 <= 1
 C5 <= 1
 C6 <= 1
 C7 <= 1
 C8 <= 1
 C9 <= 1
 C10 <= 1
 C11 <= 1
 C12 <= 1
 C13 <= 1
 C14 <= 1
 C15 <= 1
 C16 <= 1
 C17 <= 1
 C18 <= 1
 C19 <= 1
 C20 <= 1
 C21 <= 1
 C22 <= 1
 C23 <= 1
 C24 <= 1
 C25 <= 1
 C26 <= 1
 C27 <= 1
 C28 <= 1
 C29 <= 1
 C30 <= 1
 C31 <= 1
 C32 <= 1
 C33 <= 1
 C34 <= 1
 C35 <= 1
 C36 <= 1
 C37 <= 1
 C38 <= 1
 C39 <= 1
 C40 <= 1
 C41 <= 1
 C42 <= 1
 C43 <= 1
 C44 <= 1
 C45 <= 1
 C46 <= 1
 C47 <= 1
 C48 <= 1
 C49 <= 1
 C50 <= 1
 C51 <= 1
 C52 <= 1
 C53 <= 1
 C54 <= 1
 C55 <= 1
 C56 <= 1
 C57 <= 1
 C58 <= 1
 C59 <= 1
 C60 <= 1
 C61 <= 1
 C62 <= 1
 C63 <= 1
 C64 <= 1
 C65 <= 1
 C66 <= 1
 C67 <= 1
 C68 <= 1
 C69 <= 1
 C70 <= 1
 C71 <= 1
 C72 <= 1
 C73 <= 1
 C74 <= 1
 C75 <= 1
 C76 <= 1
 C77 <= 1
 C78 <= 1
 C79 <= 1
 C80 <= 1
 C81 <= 1
 C82 <= 1
 C83 <= 1
 C84 <= 1
 C85 <= 1
 C86 <= 1
 C87 <= 1
 C88 <= 1
 C89 <= 1
 C90 <= 1
 C91 <= 1
 C92 <= 1
 C93 <= 1
 C94 <= 1
 C95 <= 1
 C96 <= 1
 C97 <= 1
 C98 <= 1
 C99 <= 1
End
